1 3 100 294834.29
1 3 200 302859.74
1 3 300 310719.91
2 3 100 366255.53
2 3 200 383462.96
2 3 300 375164.80
3 3 100 401183.82
3 3 200 415741.32
3 3 300 426860.67
4 3 100 453216.04
4 3 200 447502.53
4 3 300 446203.94
5 3 100 342284.78
5 3 200 357174.92
5 3 300 345782.26
